
Log started (V11.0.0) Mon Apr 14 00:42:45 2008

Tried aggregator 1 time.
Reduced MIP has 520 rows, 10001 columns, and 20020 nonzeros.
Presolve time =    0.06 sec.
Clique table members: 500.
MIP emphasis: balance optimality and feasibility.
MIP search method: dynamic search.
Parallel mode: none, using 1 thread.
Root relaxation solution time =    0.25 sec.

        Nodes                                         Cuts/
   Node  Left     Objective  IInf  Best Integer     Best Node    ItCnt     Gap

*     0+    0                        25194.0000      122.4490      778   99.51%
*     0+    0                          130.0000      122.4490      778    5.81%
      0     0      123.0000    38      130.0000     Fract: 10      793    5.38%
*     0+    0                          129.0000      123.0000      793    4.65%
      0     0      123.0000    43      129.0000     Covers: 6      817    4.65%
*     0+    0                          128.0000      123.0000      817    3.91%
      0     0      123.0000    45      128.0000     Covers: 1      824    3.91%
*     0+    0                          127.0000      123.0000      824    3.15%
*     0+    0                          126.0000      123.0000      824    2.38%

Repeating presolve.
Tried aggregator 1 time.
MIP Presolve eliminated 0 rows and 4384 columns.
Reduced MIP has 520 rows, 5617 columns, and 11252 nonzeros.
Tried aggregator 1 time.
Represolve time =    0.19 sec.
Clique table members: 1056.
MIP emphasis: balance optimality and feasibility.
MIP search method: dynamic search.
Parallel mode: none, using 1 thread.
Root relaxation solution time =    0.19 sec.

        Nodes                                         Cuts/
   Node  Left     Objective  IInf  Best Integer     Best Node    ItCnt     Gap

      0     0      123.0000    40      126.0000      123.0000      706    2.38%
      0     2      123.0000    40      126.0000      123.0000      706    2.38%
    100    61      124.0000    34      126.0000      123.0000     6370    2.38%
    200   123      124.0000    31      126.0000      123.0000    12965    2.38%
    300   174    infeasible            126.0000      123.0000    21802    2.38%
    400   232      125.0000    35      126.0000      123.0000    31930    2.38%
    500   277      123.0000    40      126.0000      123.0000    42997    2.38%
    600   276      123.0000    37      126.0000      123.0000    46620    2.38%
    700   287      124.0000    36      126.0000      123.0000    49800    2.38%
    800   291      125.0000    34      126.0000      123.0000    54472    2.38%
    900   316      124.0000    27      126.0000      123.0000    61918    2.38%
   1000   394      125.0000    33      126.0000      123.0000    66915    2.38%
Elapsed time =  38.59 sec. (tree size =  3.44 MB, solutions = 6)
*  1039+  237                          125.0000      123.0000    70359    1.60%
   1100   285      124.0000    59      125.0000      123.0000    74378    1.60%
   1200   378      124.0000    42      125.0000      123.0000    76857    1.60%
   1300   456    infeasible            125.0000      123.0000    84396    1.60%
   1400   540      124.0000    48      125.0000      123.0000    89266    1.60%
   1500   629      124.0000    52      125.0000      123.0000    93792    1.60%
   1600   725      123.0000    59      125.0000      123.0000    97771    1.60%
   1700   811      124.0000    51      125.0000      123.0000   102956    1.60%
   1800   896      123.0000    50      125.0000      123.0000   107498    1.60%
   1900   990    infeasible            125.0000      123.0000   111675    1.60%
   2000  1080      124.0000    29      125.0000      123.0000   117252    1.60%
Elapsed time =  62.44 sec. (tree size = 10.92 MB, solutions = 7)
   2100  1150      124.0000    32      125.0000      123.0000   127085    1.60%
   2200  1219      124.0000    39      125.0000      123.0000   136784    1.60%
   2300  1312      124.0000    32      125.0000      123.0000   139279    1.60%
   2400  1412      124.0000    35      125.0000      123.0000   142125    1.60%
   2500  1512      124.0000    34      125.0000      123.0000   144584    1.60%
   2600  1606      123.0000    65      125.0000      123.0000   148130    1.60%
   2700  1696      124.0000    34      125.0000      123.0000   152866    1.60%
*  2799+  235                          124.0000      123.0000   165363    0.81%
   2800   234    infeasible            124.0000      123.0000   165692    0.81%
   2900   300      123.0000    56      124.0000      123.0000   178412    0.81%
   3000   376      123.0000    72      124.0000      123.0000   188885    0.81%
Elapsed time =  94.52 sec. (tree size =  4.10 MB, solutions = 8)
   3100   468      123.0000    61      124.0000      123.0000   194650    0.81%
   3200   560      123.0000    64      124.0000      123.0000   199423    0.81%
   3300   642      123.0000    58      124.0000      123.0000   208767    0.81%
   3400   698      123.0000    82      124.0000      123.0000   226987    0.81%
   3500   752    infeasible            124.0000      123.0000   246112    0.81%
   3600   802      123.0000    82      124.0000      123.0000   268945    0.81%
   3700   892      123.0000    90      124.0000      123.0000   276867    0.81%
   3800   968      123.0000   114      124.0000      123.0000   292480    0.81%
   3900  1002    infeasible            124.0000      123.0000   326174    0.81%
   4000  1030      123.0000    95      124.0000      123.0000   367474    0.81%
Elapsed time = 199.59 sec. (tree size = 14.49 MB, solutions = 8)
   4100  1114      123.0000   107      124.0000      123.0000   378045    0.81%
   4200  1132      123.0000   135      124.0000      123.0000   419681    0.81%
   4300  1180      123.0000   102      124.0000      123.0000   446484    0.81%
   4400  1264    infeasible            124.0000      123.0000   458876    0.81%
   4500  1326      123.0000    58      124.0000      123.0000   481899    0.81%
   4600  1392      123.0000   129      124.0000      123.0000   501134    0.81%
   4700  1422    infeasible            124.0000      123.0000   541723    0.81%
   4800  1442    infeasible            124.0000      123.0000   587372    0.81%
   4900  1454      123.0000   114      124.0000      123.0000   644628    0.81%
   5000  1484      123.0000   155      124.0000      123.0000   686544    0.81%
Elapsed time = 463.77 sec. (tree size = 25.03 MB, solutions = 8)
   5100  1496    infeasible            124.0000      123.0000   739271    0.81%
   5200  1580      123.0000    72      124.0000      123.0000   752280    0.81%
   5300  1624    infeasible            124.0000      123.0000   786224    0.81%
   5400  1676    infeasible            124.0000      123.0000   816803    0.81%
   5500  1654      123.0000   133      124.0000      123.0000   883658    0.81%
   5600  1690    infeasible            124.0000      123.0000   923627    0.81%
   5700  1722    infeasible            124.0000      123.0000   964640    0.81%
   5800  1742    infeasible            124.0000      123.0000  1015353    0.81%
   5900  1786    infeasible            124.0000      123.0000  1050635    0.81%
   6000  1832      123.0000   119      124.0000      123.0000  1084208    0.81%
Elapsed time = 856.44 sec. (tree size = 35.81 MB, solutions = 8)
   6100  1872      123.0000   122      124.0000      123.0000  1119503    0.81%
   6200  1948      123.0000   138      124.0000      123.0000  1134269    0.81%
   6300  2014    infeasible            124.0000      123.0000  1155020    0.81%
   6400  2068      123.0000   140      124.0000      123.0000  1184406    0.81%
   6500  2122      123.0000   128      124.0000      123.0000  1213718    0.81%
   6600  2148      123.0000   118      124.0000      123.0000  1262019    0.81%
   6700  2230      123.0000   140      124.0000      123.0000  1276306    0.81%
   6800  2282      123.0000   136      124.0000      123.0000  1308688    0.81%
   6900  2334      123.0000   139      124.0000      123.0000  1336146    0.81%
   7000  2402      123.0000   120      124.0000      123.0000  1356302    0.81%
Elapsed time = 1167.11 sec. (tree size = 52.36 MB, solutions = 8)
   7100  2470      123.0000   112      124.0000      123.0000  1376826    0.81%
   7200  2520    infeasible            124.0000      123.0000  1407331    0.81%
   7300  2566      123.0000   154      124.0000      123.0000  1440868    0.81%
   7400  2616    infeasible            124.0000      123.0000  1472425    0.81%
   7500  2658      123.0000   157      124.0000      123.0000  1509260    0.81%
   7600  2734      123.0000   131      124.0000      123.0000  1531612    0.81%
   7700  2728      123.0000   157      124.0000      123.0000  1594949    0.81%
   7800  2790      123.0000   159      124.0000      123.0000  1619882    0.81%
   7900  2818    infeasible            124.0000      123.0000  1659986    0.81%
   8000  2848      123.0000   149      124.0000      123.0000  1705522    0.81%
Elapsed time = 1585.95 sec. (tree size = 67.32 MB, solutions = 8)
   8100  2908      123.0000   164      124.0000      123.0000  1734734    0.81%
   8200  2968      123.0000   151      124.0000      123.0000  1761864    0.81%
   8300  3002      123.0000   140      124.0000      123.0000  1800306    0.81%
   8400  2996      123.0000   129      124.0000      123.0000  1864882    0.81%
   8500  3034    infeasible            124.0000      123.0000  1903316    0.81%
   8600  3052      123.0000   179      124.0000      123.0000  1947989    0.81%
   8700  3070    infeasible            124.0000      123.0000  1995057    0.81%
   8800  3118      123.0000   146      124.0000      123.0000  2030839    0.81%
   8900  3174      123.0000   135      124.0000      123.0000  2060255    0.81%
   9000  3224      123.0000   177      124.0000      123.0000  2091886    0.81%
Elapsed time = 2081.78 sec. (tree size = 81.67 MB, solutions = 8)
   9100  3228      123.0000   158      124.0000      123.0000  2148162    0.81%
   9200  3248      123.0000   150      124.0000      123.0000  2189338    0.81%
   9300  3272    infeasible            124.0000      123.0000  2231929    0.81%
   9400  3310      123.0000   151      124.0000      123.0000  2279072    0.81%
   9500  3360      123.0000   137      124.0000      123.0000  2309944    0.81%
   9600  3382      123.0000   180      124.0000      123.0000  2355671    0.81%
   9700  3395    infeasible            124.0000      123.0000  2408489    0.81%
   9800  3395      123.0000   124      124.0000      123.0000  2461994    0.81%
   9900  3425    infeasible            124.0000      123.0000  2503539    0.81%
  10000  3451      123.0000   179      124.0000      123.0000  2547621    0.81%
Elapsed time = 2716.86 sec. (tree size = 92.76 MB, solutions = 8)
  10100  3473      123.0000   163      124.0000      123.0000  2593157    0.81%
  10200  3521      123.0000   167      124.0000      123.0000  2625254    0.81%
  10300  3583      123.0000   143      124.0000      123.0000  2649540    0.81%
  10400  3593    infeasible            124.0000      123.0000  2703694    0.81%
  10500  3613    infeasible            124.0000      123.0000  2753188    0.81%
  10600  3629      123.0000   143      124.0000      123.0000  2799813    0.81%
  10700  3647    infeasible            124.0000      123.0000  2839635    0.81%
  10800  3679      123.0000   182      124.0000      123.0000  2882155    0.81%
  10900  3713      123.0000   147      124.0000      123.0000  2914424    0.81%
  11000  3777    infeasible            124.0000      123.0000  2936680    0.81%
Elapsed time = 3295.11 sec. (tree size = 107.10 MB, solutions = 8)
  11100  3787      123.0000   164      124.0000      123.0000  2984287    0.81%
  11200  3821      123.0000   158      124.0000      123.0000  3020796    0.81%
  11300  3849      123.0000   146      124.0000      123.0000  3062260    0.81%
  11400  3889      123.0000   191      124.0000      123.0000  3098431    0.81%
  11500  3911      123.0000   133      124.0000      123.0000  3138916    0.81%
  11600  3937    infeasible            124.0000      123.0000  3185807    0.81%
  11700  3981    infeasible            124.0000      123.0000  3214921    0.81%
  11800  4007      123.0000   167      124.0000      123.0000  3256171    0.81%
  11900  4021    infeasible            124.0000      123.0000  3302775    0.81%
  12000  4027    infeasible            124.0000      123.0000  3357940    0.81%
Elapsed time = 3970.91 sec. (tree size = 119.78 MB, solutions = 8)
  12100  4071    infeasible            124.0000      123.0000  3385812    0.81%
  12200  4115      123.0000   154      124.0000      123.0000  3419723    0.81%
  12300  4125    infeasible            124.0000      123.0000  3472167    0.81%
  12400  4151    infeasible            124.0000      123.0000  3509914    0.81%
  12500  4179      123.0000   170      124.0000      123.0000  3549706    0.81%
  12600  4251      123.0000   155      124.0000      123.0000  3568902    0.81%
  12700  4307    infeasible            124.0000      123.0000  3593098    0.81%
  12800  4323    infeasible            124.0000      123.0000  3632977    0.81%
  12900  4351      123.0000   156      124.0000      123.0000  3668991    0.81%
  13000  4375      123.0000   175      124.0000      123.0000  3712442    0.81%
Elapsed time = 4531.78 sec. (tree size = 135.42 MB, solutions = 8)
Nodefile size =  7.85 MB (7.57 MB after compression)
  13100  4391      123.0000   191      124.0000      123.0000  3758433    0.81%
  13200  4415      123.0000   159      124.0000      123.0000  3805950    0.81%
  13300  4465    infeasible            124.0000      123.0000  3835133    0.81%
  13400  4479    infeasible            124.0000      123.0000  3884343    0.81%
  13500  4503      123.0000   171      124.0000      123.0000  3924154    0.81%
  13600  4539    infeasible            124.0000      123.0000  3963022    0.81%
  13700  4583      123.0000   171      124.0000      123.0000  3996152    0.81%
  13800  4613      123.0000   153      124.0000      123.0000  4034825    0.81%
  13900  4639      123.0000   143      124.0000      123.0000  4080049    0.81%
  14000  4703      123.0000   172      124.0000      123.0000  4101701    0.81%
Elapsed time = 5138.69 sec. (tree size = 150.23 MB, solutions = 8)
Nodefile size = 22.58 MB (21.78 MB after compression)
  14100  4713      123.0000   133      124.0000      123.0000  4141528    0.81%
  14200  4741    infeasible            124.0000      123.0000  4178592    0.81%
  14300  4771    infeasible            124.0000      123.0000  4214264    0.81%
  14400  4825      123.0000   144      124.0000      123.0000  4243516    0.81%
  14500  4863    infeasible            124.0000      123.0000  4275710    0.81%
  14600  4905      123.0000   131      124.0000      123.0000  4302786    0.81%
  14700  4961      123.0000   151      124.0000      123.0000  4326343    0.81%
  14800  4987      123.0000   156      124.0000      123.0000  4370674    0.81%
  14900  5039      123.0000   114      124.0000      123.0000  4397504    0.81%
  15000  5077      123.0000   153      124.0000      123.0000  4432510    0.81%
Elapsed time = 5664.36 sec. (tree size = 165.86 MB, solutions = 8)
Nodefile size = 38.29 MB (36.94 MB after compression)
  15100  5099      123.0000   124      124.0000      123.0000  4467146    0.81%
  15200  5131      123.0000   164      124.0000      123.0000  4502142    0.81%
  15300  5175      123.0000   182      124.0000      123.0000  4531351    0.81%
  15400  5187      123.0000   163      124.0000      123.0000  4565896    0.81%
  15500  5239      123.0000   155      124.0000      123.0000  4591789    0.81%
  15600  5293      123.0000   163      124.0000      123.0000  4617867    0.81%
  15700  5315    infeasible            124.0000      123.0000  4659924    0.81%
  15800  5391      123.0000   180      124.0000      123.0000  4680670    0.81%
  15900  5409      123.0000   156      124.0000      123.0000  4718022    0.81%
  16000  5451    infeasible            124.0000      123.0000  4747640    0.81%
Elapsed time = 6184.03 sec. (tree size = 181.24 MB, solutions = 8)
Nodefile size = 54.02 MB (52.13 MB after compression)
  16100  5465    infeasible            124.0000      123.0000  4786627    0.81%
  16200  5513    infeasible            124.0000      123.0000  4817582    0.81%
  16300  5539      123.0000   155      124.0000      123.0000  4858861    0.81%
  16400  5591      123.0000   136      124.0000      123.0000  4887127    0.81%
  16500  5627    infeasible            124.0000      123.0000  4918910    0.81%
  16600  5645    infeasible            124.0000      123.0000  4966614    0.81%
  16700  5701    infeasible            124.0000      123.0000  4992209    0.81%
  16800  5739      123.0000   134      124.0000      123.0000  5021233    0.81%
  16900  5775    infeasible            124.0000      123.0000  5058364    0.81%
  17000  5787    infeasible            124.0000      123.0000  5099393    0.81%
Elapsed time = 6739.42 sec. (tree size = 195.59 MB, solutions = 8)
Nodefile size = 67.69 MB (65.33 MB after compression)
  17100  5785      123.0000   186      124.0000      123.0000  5149441    0.81%
  17200  5829    infeasible            124.0000      123.0000  5179996    0.81%
  17300  5845    infeasible            124.0000      123.0000  5215897    0.81%
  17400  5879    infeasible            124.0000      123.0000  5248845    0.81%
  17500  5903      123.0000   179      124.0000      123.0000  5283232    0.81%
  17600  5951    infeasible            124.0000      123.0000  5313191    0.81%
  17700  5943      123.0000   141      124.0000      123.0000  5358479    0.81%
  17800  5971      123.0000   148      124.0000      123.0000  5391017    0.81%

Cover cuts applied:  2597
Mixed integer rounding cuts applied:  1
Gomory fractional cuts applied:  2

Solution pool: 8 solutions saved.

MIP - Time limit exceeded, integer feasible:  Objective = 1.2400000000e+002
Current MIP best bound = 1.2300000000e+002 (gap = 1, 0.81%)
Solution time = 7200.16 sec.  Iterations = 5394567  Nodes = 17824 (5990)


Incumbent solution
Variable Name           Solution Value
Cmax                        124.000000
X_1_11                        1.000000
X_2_11                        1.000000
X_3_16                        1.000000
X_4_19                        1.000000
X_5_17                        1.000000
X_6_8                         1.000000
X_7_19                        1.000000
X_8_5                         1.000000
X_9_11                        1.000000
X_10_5                        1.000000
X_11_18                       1.000000
X_12_4                        1.000000
X_13_6                        1.000000
X_14_20                       1.000000
X_15_1                        1.000000
X_16_13                       1.000000
X_17_2                        1.000000
X_18_4                        1.000000
X_19_19                       1.000000
X_20_15                       1.000000
X_21_7                        1.000000
X_22_3                        1.000000
X_23_9                        1.000000
X_24_13                       1.000000
X_25_5                        1.000000
X_26_10                       1.000000
X_27_14                       1.000000
X_28_14                       1.000000
X_29_18                       1.000000
X_30_17                       1.000000
X_31_3                        1.000000
X_32_15                       1.000000
X_33_3                        1.000000
X_34_1                        1.000000
X_35_14                       1.000000
X_36_20                       1.000000
X_37_20                       1.000000
X_38_16                       1.000000
X_39_10                       1.000000
X_40_19                       1.000000
X_41_2                        1.000000
X_42_2                        1.000000
X_43_3                        1.000000
X_44_18                       1.000000
X_45_1                        1.000000
X_46_11                       1.000000
X_47_17                       1.000000
X_48_4                        1.000000
X_49_6                        1.000000
X_50_15                       1.000000
X_51_4                        1.000000
X_52_18                       1.000000
X_53_12                       1.000000
X_54_9                        1.000000
X_55_17                       1.000000
X_56_19                       1.000000
X_57_15                       1.000000
X_58_6                        1.000000
X_59_11                       1.000000
X_60_14                       1.000000
X_61_19                       1.000000
X_62_13                       1.000000
X_63_17                       1.000000
X_64_6                        1.000000
X_65_18                       1.000000
X_66_3                        1.000000
X_67_6                        1.000000
X_68_11                       1.000000
X_69_17                       1.000000
X_70_15                       1.000000
X_71_15                       1.000000
X_72_19                       1.000000
X_73_2                        1.000000
X_74_8                        1.000000
X_75_12                       1.000000
X_76_1                        1.000000
X_77_18                       1.000000
X_78_11                       1.000000
X_79_18                       1.000000
X_80_18                       1.000000
X_81_8                        1.000000
X_82_19                       1.000000
X_83_9                        1.000000
X_84_11                       1.000000
X_85_20                       1.000000
X_86_19                       1.000000
X_87_10                       1.000000
X_88_4                        1.000000
X_89_6                        1.000000
X_90_10                       1.000000
X_91_1                        1.000000
X_92_4                        1.000000
X_93_4                        1.000000
X_94_1                        1.000000
X_95_13                       1.000000
X_96_15                       1.000000
X_97_2                        1.000000
X_98_18                       1.000000
X_99_3                        1.000000
X_100_7                       1.000000
X_101_5                       1.000000
X_102_5                       1.000000
X_103_20                      1.000000
X_104_16                      1.000000
X_105_8                       1.000000
X_106_11                      1.000000
X_107_2                       1.000000
X_108_16                      1.000000
X_109_19                      1.000000
X_110_12                      1.000000
X_111_5                       1.000000
X_112_6                       1.000000
X_113_10                      1.000000
X_114_19                      1.000000
X_115_10                      1.000000
X_116_12                      1.000000
X_117_12                      1.000000
X_118_1                       1.000000
X_119_8                       1.000000
X_120_12                      1.000000
X_121_9                       1.000000
X_122_2                       1.000000
X_123_16                      1.000000
X_124_17                      1.000000
X_125_13                      1.000000
X_126_14                      1.000000
X_127_12                      1.000000
X_128_7                       1.000000
X_129_7                       1.000000
X_130_19                      1.000000
X_131_5                       1.000000
X_132_14                      1.000000
X_133_20                      1.000000
X_134_18                      1.000000
X_135_4                       1.000000
X_136_1                       1.000000
X_137_3                       1.000000
X_138_12                      1.000000
X_139_4                       1.000000
X_140_14                      1.000000
X_141_11                      1.000000
X_142_3                       1.000000
X_143_19                      1.000000
X_144_8                       1.000000
X_145_6                       1.000000
X_146_2                       1.000000
X_147_12                      1.000000
X_148_19                      1.000000
X_149_11                      1.000000
X_150_5                       1.000000
X_151_10                      1.000000
X_152_9                       1.000000
X_153_6                       1.000000
X_154_16                      1.000000
X_155_10                      1.000000
X_156_12                      1.000000
X_157_7                       1.000000
X_158_6                       1.000000
X_159_1                       1.000000
X_160_4                       1.000000
X_161_20                      1.000000
X_162_11                      1.000000
X_163_9                       1.000000
X_164_10                      1.000000
X_165_19                      1.000000
X_166_4                       1.000000
X_167_10                      1.000000
X_168_14                      1.000000
X_169_1                       1.000000
X_170_14                      1.000000
X_171_10                      1.000000
X_172_18                      1.000000
X_173_14                      1.000000
X_174_2                       1.000000
X_175_18                      1.000000
X_176_8                       1.000000
X_177_16                      1.000000
X_178_1                       1.000000
X_179_1                       1.000000
X_180_17                      1.000000
X_181_9                       1.000000
X_182_14                      1.000000
X_183_20                      1.000000
X_184_3                       1.000000
X_185_20                      1.000000
X_186_12                      1.000000
X_187_11                      1.000000
X_188_3                       1.000000
X_189_3                       1.000000
X_190_9                       1.000000
X_191_6                       1.000000
X_192_18                      1.000000
X_193_1                       1.000000
X_194_11                      1.000000
X_195_15                      1.000000
X_196_7                       1.000000
X_197_4                       1.000000
X_198_2                       1.000000
X_199_19                      1.000000
X_200_13                      1.000000
X_201_15                      1.000000
X_202_6                       1.000000
X_203_11                      1.000000
X_204_8                       1.000000
X_205_1                       1.000000
X_206_3                       1.000000
X_207_10                      1.000000
X_208_20                      1.000000
X_209_2                       1.000000
X_210_12                      1.000000
X_211_2                       1.000000
X_212_20                      1.000000
X_213_2                       1.000000
X_214_3                       1.000000
X_215_18                      1.000000
X_216_12                      1.000000
X_217_10                      1.000000
X_218_5                       1.000000
X_219_7                       1.000000
X_220_3                       1.000000
X_221_12                      1.000000
X_222_9                       1.000000
X_223_6                       1.000000
X_224_16                      1.000000
X_225_2                       1.000000
X_226_12                      1.000000
X_227_18                      1.000000
X_228_13                      1.000000
X_229_7                       1.000000
X_230_5                       1.000000
X_231_11                      1.000000
X_232_20                      1.000000
X_233_16                      1.000000
X_234_12                      1.000000
X_235_15                      1.000000
X_236_8                       1.000000
X_237_10                      1.000000
X_238_10                      1.000000
X_239_7                       1.000000
X_240_2                       1.000000
X_241_14                      1.000000
X_242_17                      1.000000
X_243_13                      1.000000
X_244_13                      1.000000
X_245_20                      1.000000
X_246_14                      1.000000
X_247_13                      1.000000
X_248_2                       1.000000
X_249_7                       1.000000
X_250_5                       1.000000
X_251_3                       1.000000
X_252_14                      1.000000
X_253_14                      1.000000
X_254_6                       1.000000
X_255_2                       1.000000
X_256_13                      1.000000
X_257_10                      1.000000
X_258_2                       1.000000
X_259_4                       1.000000
X_260_17                      1.000000
X_261_4                       1.000000
X_262_7                       1.000000
X_263_3                       1.000000
X_264_8                       1.000000
X_265_14                      1.000000
X_266_8                       1.000000
X_267_17                      1.000000
X_268_12                      1.000000
X_269_15                      1.000000
X_270_11                      1.000000
X_271_16                      1.000000
X_272_17                      1.000000
X_273_12                      1.000000
X_274_2                       1.000000
X_275_12                      1.000000
X_276_3                       1.000000
X_277_10                      1.000000
X_278_13                      1.000000
X_279_20                      1.000000
X_280_9                       1.000000
X_281_9                       1.000000
X_282_2                       1.000000
X_283_2                       1.000000
X_284_13                      1.000000
X_285_9                       1.000000
X_286_15                      1.000000
X_287_18                      1.000000
X_288_2                       1.000000
X_289_2                       1.000000
X_290_13                      1.000000
X_291_14                      1.000000
X_292_8                       1.000000
X_293_13                      1.000000
X_294_19                      1.000000
X_295_20                      1.000000
X_296_16                      1.000000
X_297_7                       1.000000
X_298_2                       1.000000
X_299_15                      1.000000
X_300_15                      1.000000
X_301_13                      1.000000
X_302_14                      1.000000
X_303_15                      1.000000
X_304_13                      1.000000
X_305_13                      1.000000
X_306_11                      1.000000
X_307_10                      1.000000
X_308_19                      1.000000
X_309_17                      1.000000
X_310_3                       1.000000
X_311_8                       1.000000
X_312_10                      1.000000
X_313_14                      1.000000
X_314_7                       1.000000
X_315_5                       1.000000
X_316_1                       1.000000
X_317_6                       1.000000
X_318_2                       1.000000
X_319_14                      1.000000
X_320_15                      1.000000
X_321_4                       1.000000
X_322_8                       1.000000
X_323_3                       1.000000
X_324_5                       1.000000
X_325_5                       1.000000
X_326_4                       1.000000
X_327_8                       1.000000
X_328_13                      1.000000
X_329_14                      1.000000
X_330_3                       1.000000
X_331_20                      1.000000
X_332_18                      1.000000
X_333_10                      1.000000
X_334_10                      1.000000
X_335_1                       1.000000
X_336_18                      1.000000
X_337_7                       1.000000
X_338_20                      1.000000
X_339_7                       1.000000
X_340_20                      1.000000
X_341_9                       1.000000
X_342_13                      1.000000
X_343_18                      1.000000
X_344_7                       1.000000
X_345_13                      1.000000
X_346_19                      1.000000
X_347_16                      1.000000
X_348_3                       1.000000
X_349_2                       1.000000
X_350_1                       1.000000
X_351_5                       1.000000
X_352_4                       1.000000
X_353_7                       1.000000
X_354_17                      1.000000
X_355_2                       1.000000
X_356_2                       1.000000
X_357_12                      1.000000
X_358_5                       1.000000
X_359_20                      1.000000
X_360_10                      1.000000
X_361_8                       1.000000
X_362_1                       1.000000
X_363_19                      1.000000
X_364_4                       1.000000
X_365_17                      1.000000
X_366_17                      1.000000
X_367_12                      1.000000
X_368_17                      1.000000
X_369_3                       1.000000
X_370_4                       1.000000
X_371_17                      1.000000
X_372_9                       1.000000
X_373_3                       1.000000
X_374_16                      1.000000
X_375_17                      1.000000
X_376_7                       1.000000
X_377_16                      1.000000
X_378_1                       1.000000
X_379_9                       1.000000
X_380_6                       1.000000
X_381_18                      1.000000
X_382_9                       1.000000
X_383_16                      1.000000
X_384_15                      1.000000
X_385_16                      1.000000
X_386_8                       1.000000
X_387_12                      1.000000
X_388_20                      1.000000
X_389_12                      1.000000
X_390_9                       1.000000
X_391_7                       1.000000
X_392_20                      1.000000
X_393_11                      1.000000
X_394_13                      1.000000
X_395_14                      1.000000
X_396_3                       1.000000
X_397_15                      1.000000
X_398_11                      1.000000
X_399_3                       1.000000
X_400_11                      1.000000
X_401_2                       1.000000
X_402_7                       1.000000
X_403_18                      1.000000
X_404_15                      1.000000
X_405_19                      1.000000
X_406_17                      1.000000
X_407_10                      1.000000
X_408_10                      1.000000
X_409_19                      1.000000
X_410_10                      1.000000
X_411_17                      1.000000
X_412_8                       1.000000
X_413_3                       1.000000
X_414_14                      1.000000
X_415_18                      1.000000
X_416_4                       1.000000
X_417_11                      1.000000
X_418_18                      1.000000
X_419_5                       1.000000
X_420_5                       1.000000
X_421_7                       1.000000
X_422_17                      1.000000
X_423_10                      1.000000
X_424_8                       1.000000
X_425_3                       1.000000
X_426_6                       1.000000
X_427_1                       1.000000
X_428_18                      1.000000
X_429_8                       1.000000
X_430_14                      1.000000
X_431_5                       1.000000
X_432_19                      1.000000
X_433_13                      1.000000
X_434_2                       1.000000
X_435_8                       1.000000
X_436_8                       1.000000
X_437_1                       1.000000
X_438_18                      1.000000
X_439_20                      1.000000
X_440_5                       1.000000
X_441_16                      1.000000
X_442_6                       1.000000
X_443_14                      1.000000
X_444_12                      1.000000
X_445_3                       1.000000
X_446_16                      1.000000
X_447_3                       1.000000
X_448_17                      1.000000
X_449_7                       1.000000
X_450_17                      1.000000
X_451_19                      1.000000
X_452_20                      1.000000
X_453_16                      1.000000
X_454_17                      1.000000
X_455_20                      1.000000
X_456_7                       1.000000
X_457_9                       1.000000
X_458_16                      1.000000
X_459_20                      1.000000
X_460_5                       1.000000
X_461_6                       1.000000
X_462_10                      1.000000
X_463_15                      1.000000
X_464_10                      1.000000
X_465_7                       1.000000
X_466_19                      1.000000
X_467_15                      1.000000
X_468_9                       1.000000
X_469_16                      1.000000
X_470_19                      1.000000
X_471_4                       1.000000
X_472_14                      1.000000
X_473_9                       1.000000
X_474_17                      1.000000
X_475_9                       1.000000
X_476_18                      1.000000
X_477_3                       1.000000
X_478_1                       1.000000
X_479_13                      1.000000
X_480_12                      1.000000
X_481_5                       1.000000
X_482_5                       1.000000
X_483_6                       1.000000
X_484_16                      1.000000
X_485_20                      1.000000
X_486_20                      1.000000
X_487_15                      1.000000
X_488_2                       1.000000
X_489_1                       1.000000
X_490_16                      1.000000
X_491_3                       1.000000
X_492_14                      1.000000
X_493_16                      1.000000
X_494_1                       1.000000
X_495_14                      1.000000
X_496_18                      1.000000
X_497_1                       1.000000
X_498_16                      1.000000
X_499_17                      1.000000
X_500_18                      1.000000
All other variables in the range 1-10001 are 0.
